c preprocessed version of TaylorTwographSRG_3, 28 vertices, 210 edges
p td 28 210
0 2
0 5
0 7
0 9
0 10
0 11
0 12
0 13
0 15
0 18
0 19
0 22
0 25
0 26
0 27
1 2
1 5
1 6
1 7
1 9
1 10
1 11
1 13
1 15
1 18
1 19
1 20
1 21
1 23
1 24
2 3
2 6
2 8
2 11
2 17
2 19
3 7
3 9
3 10
3 13
3 16
3 17
3 18
3 19
3 20
4 5
4 7
4 9
4 10
4 11
4 17
4 19
4 20
5 6
5 8
5 13
5 16
5 17
5 18
5 19
6 7
6 9
6 10
6 14
6 16
6 17
6 20
7 11
7 14
7 15
7 16
7 17
7 18
7 19
8 9
8 10
8 11
8 14
8 15
8 16
8 17
8 18
8 19
8 20
9 10
9 11
9 16
9 18
10 13
10 14
10 15
10 17
10 19
11 13
11 14
11 16
11 17
11 20
12 2
12 4
12 6
12 9
12 13
12 14
12 15
12 16
12 17
12 18
12 19
12 20
12 23
12 24
13 14
13 16
13 17
13 20
14 18
14 19
15 16
15 17
15 20
16 19
17 18
18 20
19 20
21 2
21 4
21 9
21 13
21 14
21 15
21 16
21 17
21 18
21 19
21 22
21 25
21 26
21 27
22 2
22 3
22 4
22 5
22 6
22 10
22 11
22 14
22 15
22 16
22 18
22 20
22 24
23 2
23 3
23 4
23 5
23 10
23 11
23 14
23 15
23 16
23 18
23 25
23 26
23 27
24 2
24 3
24 4
24 5
24 7
24 8
24 9
24 13
24 14
24 15
24 25
24 27
25 3
25 5
25 6
25 9
25 11
25 14
25 15
25 17
25 19
25 20
25 27
26 2
26 3
26 4
26 5
26 6
26 7
26 8
26 9
26 13
26 14
26 15
26 20
27 2
27 4
27 6
27 7
27 8
27 10
27 13
27 16
27 18
27 20
